105 
300 
-0.5 0 0 0
0.5 0 0 -119
-7 -7 35 -29
-7 -5 -35 -104
-7 -3 35 -14
-7 -1 35 -26
-7 1 -35 -62
-7 3 35 -20
-7 5 35 -11
-7 7 35 -11
-5 -7 35 -23
-5 -5 25 -27
-5 -3 25 -24
-5 -1 -25 -129
-5 1 25 -19
-5 3 25 -18
-5 5 25 -28
-5 7 -35 -90
-3 -7 -35 -75
-3 -5 25 -20
-3 -3 -15 -90
-3 -1 -15 -78
-3 1 15 -11
-3 3 15 -21
-3 5 25 -24
-3 7 -35 -60
-1 -7 35 -11
-1 -5 25 -12
-1 -3 15 -19
-1 -1 5 -24
-1 1 -5 -60
-1 3 -15 -65
-1 5 -25 -79
-1 7 35 -27
1 -7 -35 -87
1 -5 25 -13
1 -3 -15 -97
1 -1 5 -13
1 1 -5 -70
1 3 15 -28
1 5 25 -20
1 7 -35 -104
3 -7 -35 -120
3 -5 -25 -110
3 -3 -15 -76
3 -1 -15 -134
3 1 15 -18
3 3 15 -16
3 5 25 -21
3 7 -35 -73
5 -7 35 -24
5 -5 -25 -130
5 -3 25 -26
5 -1 -25 -132
5 1 -25 -86
5 3 -25 -89
5 5 25 -10
5 7 35 -24
7 -7 -35 -92
7 -5 -35 -65
7 -3 -35 -81
7 -1 -35 -107
7 1 -35 -120
7 3 -35 -139
7 5 35 -20
7 7 35 -10
